0 104 111
1 88 112
2 99 114
3 101 114
4 100 112
5 103 112
6 83 111
7 108 109
8 98 108
9 98 105
10 95 103
11 84 100
12 94 100
13 90 100
14 97 102
15 76 99
16 85 100
17 99 99
18 79 100
19 94 99
20 64 101
21 57 99
22 85 98
23 93 95
24 78 94
25 74 89
26 85 88
27 79 89
28 77 86
29 80 84
30 54 83
31 63 78
32 71 73
33 71 73
34 70 73
35 52 71
36 63 68
37 47 66
38 61 64
39 46 62
40 29 60
41 53 59
42 52 58
43 53 58
44 55 57
45 49 55
46 49 54
47 45 55
48 50 55
49 46 54
50 53 53
51 47 51
52 35 51
53 48 51
54 46 50
55 44 49
56 45 50
57 42 47
58 27 44
59 39 42
60 21 41
61 28 38
62 37 39
63 28 39
64 20 37
65 36 37
66 24 33
67 29 32
68 26 32
69 27 28
70 20 28
71 27 27
72 23 26
73 14 23
74 23 23
75 19 20
76 13 20
77 19 19
78 15 17
79 15 15
80 5 14
81 11 13
82 10 14
83 10 12
84 6 10
85 9 9
86 7 7
87 7 9
88 8 8
89 6 7
90 6 6
91 2 5
92 6 6
93 5 5
94 6 5
95 4 5
96 1 4
97 2 3
98 1 3
99 1 2

